n = 44;
m = 13;

G = 
[[0.   0.   0.67 0.39 0.   0.31 0.94 0.   0.95 0.38 0.67 0.89 0.69 0.   0.23 0.86 0.   0.   0.   0.3  0.68 0.   0.   0.   0.59 0.89 0.   0.77 0.   0.3  0.17 0.09 0.4  0.   0.69 0.45 0.74 0.   0.   0.   0.   0.21 0.6  0.  ]
 [0.   0.   0.   0.44 0.   0.47 0.   0.   0.   0.25 0.52 0.   0.07 0.   0.24 0.   0.99 0.   0.24 0.95 0.27 0.1  0.09 0.   0.55 0.43 0.   0.   0.   0.   0.9  0.   0.   0.   0.28 0.03 0.53 0.9  0.62 0.56 0.8  0.   0.99 0.17]
 [0.67 0.   0.   0.   0.46 0.   0.   0.26 0.   0.   0.02 0.55 0.   0.   0.71 0.7  0.   0.   0.71 0.53 0.97 0.2  0.24 0.   0.05 0.   0.   0.18 0.63 0.41 0.   0.64 0.   0.52 0.64 0.09 0.   0.79 0.17 0.57 0.3  0.26 0.16 0.  ]
 [0.39 0.44 0.   0.   0.   0.   0.93 0.21 0.43 0.54 0.13 0.48 0.09 0.   0.75 0.   0.   0.   0.86 0.   0.47 0.   0.85 0.   0.9  0.9  0.   0.08 0.24 0.27 0.   0.29 0.87 0.38 0.02 0.   0.   0.32 0.42 0.31 0.11 0.57 0.64 0.  ]
 [0.   0.   0.46 0.   0.   0.01 0.   0.98 0.   0.3  0.28 0.17 0.22 1.   0.   0.28 0.8  0.   0.34 0.   0.03 0.   0.24 0.   0.86 0.03 0.94 0.24 0.   0.   0.14 0.   0.   0.   0.59 0.22 0.73 0.39 0.   0.08 0.49 0.   0.43 0.86]
 [0.31 0.47 0.   0.   0.01 0.   0.   0.46 0.   0.44 0.11 0.05 0.27 0.   0.1  0.35 0.   0.81 0.   0.   0.09 0.89 0.   0.   0.   0.   0.21 0.39 0.12 0.66 0.   0.   0.9  0.22 0.   0.11 0.11 0.37 0.   0.33 0.32 0.96 0.58 0.6 ]
 [0.94 0.   0.   0.93 0.   0.   0.   0.   0.02 0.46 0.   0.03 0.83 0.   0.   0.   0.61 0.   0.   0.   0.   0.95 0.05 0.46 0.59 0.   0.   0.   0.45 0.41 0.   0.   0.01 0.16 0.   0.88 0.   0.   0.54 0.   0.67 0.98 0.18 0.21]
 [0.   0.   0.26 0.21 0.98 0.46 0.   0.   0.   0.   0.92 0.   0.22 0.93 0.59 0.   0.01 0.49 0.   0.   0.36 0.06 0.87 0.   0.   0.32 0.   0.   0.07 0.82 0.   0.   0.19 0.   0.   0.   0.24 0.   0.62 0.74 0.81 0.   0.6  0.  ]
 [0.95 0.   0.   0.43 0.   0.   0.02 0.   0.   0.   0.95 0.   0.   0.   0.   0.94 0.   0.16 0.5  0.   0.   0.76 0.   0.06 0.67 0.   0.24 0.8  0.   0.26 0.4  0.8  0.72 0.74 0.78 0.49 0.33 0.96 0.   0.4  0.   0.   0.   0.  ]
 [0.38 0.25 0.   0.54 0.3  0.44 0.46 0.   0.   0.   0.82 0.78 0.5  0.34 0.03 0.64 0.   0.85 0.   0.93 0.   0.51 0.02 0.99 0.21 0.58 0.92 0.32 0.48 0.   0.   0.   0.01 0.   0.92 0.   0.46 0.28 0.   0.   0.   0.   0.56 0.  ]
 [0.67 0.52 0.02 0.13 0.28 0.11 0.   0.92 0.95 0.82 0.   0.   0.   0.01 0.   0.   0.84 0.   0.93 0.74 0.76 0.34 0.   0.05 0.5  0.66 0.08 0.7  0.   0.   0.44 0.   0.21 0.   0.36 0.88 0.   0.   0.   0.   0.   0.   0.72 0.79]
 [0.89 0.   0.55 0.48 0.17 0.05 0.03 0.   0.   0.78 0.   0.   0.   0.58 0.   0.   0.09 0.   0.   0.69 0.   0.06 0.76 0.3  0.52 0.91 0.   0.19 0.5  0.08 0.   0.   0.   0.   0.12 0.98 0.46 0.   0.01 0.89 0.53 0.28 0.   0.34]
 [0.69 0.07 0.   0.09 0.22 0.27 0.83 0.22 0.   0.5  0.   0.   0.   0.   0.34 0.   0.   0.   0.   0.99 0.43 0.96 0.   0.   0.21 0.92 0.8  0.   0.   0.   0.39 0.   0.12 0.79 0.   0.45 0.15 0.96 0.83 0.06 0.   0.   0.   0.  ]
 [0.   0.   0.   0.   1.   0.   0.   0.93 0.   0.34 0.01 0.58 0.   0.   0.   0.   0.   0.57 0.   0.02 0.03 0.65 0.83 0.4  0.52 0.   0.66 0.   0.3  0.   0.72 0.82 0.   0.26 0.52 0.01 0.09 0.04 0.   0.53 0.   0.89 0.   0.82]
 [0.23 0.24 0.71 0.75 0.   0.1  0.   0.59 0.   0.03 0.   0.   0.34 0.   0.   0.57 0.52 0.   0.   0.84 0.44 0.36 0.   0.   0.32 0.83 0.   0.39 0.   0.   0.42 0.64 0.01 0.61 0.7  0.   0.   0.   0.   0.41 0.   0.14 0.25 0.73]
 [0.86 0.   0.7  0.   0.28 0.35 0.   0.   0.94 0.64 0.   0.   0.   0.   0.57 0.   0.   0.52 0.61 0.88 0.39 0.09 0.16 0.31 0.   0.   0.46 0.   0.83 0.   0.05 0.   0.32 0.6  0.52 0.94 0.76 0.   0.99 0.   0.64 0.   0.51 0.04]
 [0.   0.99 0.   0.   0.8  0.   0.61 0.01 0.   0.   0.84 0.09 0.   0.   0.52 0.   0.   0.3  0.75 0.   0.81 0.   0.27 0.21 0.55 0.87 0.27 0.   0.81 0.   0.   0.   0.61 0.   0.   0.   0.   0.61 0.69 0.19 0.   0.   0.04 0.  ]
 [0.   0.   0.   0.   0.   0.81 0.   0.49 0.16 0.85 0.   0.   0.   0.57 0.   0.52 0.3  0.   0.9  0.   0.   0.48 0.6  0.   0.96 0.26 0.   0.95 0.   0.07 0.63 1.   0.62 0.2  0.   0.6  0.   0.   0.72 0.11 0.48 0.87 0.   0.93]
 [0.   0.24 0.71 0.86 0.34 0.   0.   0.   0.5  0.   0.93 0.   0.   0.   0.   0.61 0.75 0.9  0.   0.62 0.1  0.   0.57 0.   0.53 0.   0.   0.38 0.9  0.41 0.19 0.   0.   0.77 0.05 0.   0.24 0.   0.5  0.75 0.   0.65 0.44 0.  ]
 [0.3  0.95 0.53 0.   0.   0.   0.   0.   0.   0.93 0.74 0.69 0.99 0.02 0.84 0.88 0.   0.   0.62 0.   0.98 0.72 0.68 0.5  0.59 0.   0.66 0.71 0.   0.09 0.   0.92 0.01 0.98 0.61 0.25 0.   0.19 0.38 0.14 0.   0.28 0.   0.04]
 [0.68 0.27 0.97 0.47 0.03 0.09 0.   0.36 0.   0.   0.76 0.   0.43 0.03 0.44 0.39 0.81 0.   0.1  0.98 0.   0.   0.   0.64 0.89 0.   0.27 0.7  0.62 0.   0.56 0.89 0.32 0.44 0.   0.06 0.   0.24 0.64 0.   0.   0.32 0.6  0.  ]
 [0.   0.1  0.2  0.   0.   0.89 0.95 0.06 0.76 0.51 0.34 0.06 0.96 0.65 0.36 0.09 0.   0.48 0.   0.72 0.   0.   0.38 0.82 0.   0.74 0.   0.   0.   0.   0.   0.26 0.   0.08 0.54 0.79 0.   0.23 0.24 0.06 0.04 0.   0.   0.57]
 [0.   0.09 0.24 0.85 0.24 0.   0.05 0.87 0.   0.02 0.   0.76 0.   0.83 0.   0.16 0.27 0.6  0.57 0.68 0.   0.38 0.   0.14 0.7  0.   0.   0.51 0.57 0.97 0.   0.   0.11 0.85 0.97 0.55 0.   0.13 0.35 0.36 0.41 0.9  0.   0.  ]
 [0.   0.   0.   0.   0.   0.   0.46 0.   0.06 0.99 0.05 0.3  0.   0.4  0.   0.31 0.21 0.   0.   0.5  0.64 0.82 0.14 0.   0.61 0.   0.94 0.62 0.46 0.08 0.28 0.03 0.21 0.54 0.66 0.   0.   0.07 0.   0.   0.   0.39 0.39 0.34]
 [0.59 0.55 0.05 0.9  0.86 0.   0.59 0.   0.67 0.21 0.5  0.52 0.21 0.52 0.32 0.   0.55 0.96 0.53 0.59 0.89 0.   0.7  0.61 0.   0.   0.   0.   0.24 0.28 0.34 0.37 0.38 0.12 0.88 0.   0.   0.97 0.   0.26 0.   0.84 0.41 0.  ]
 [0.89 0.43 0.   0.9  0.03 0.   0.   0.32 0.   0.58 0.66 0.91 0.92 0.   0.83 0.   0.87 0.26 0.   0.   0.   0.74 0.   0.   0.   0.   0.91 0.   0.   0.   0.   0.37 0.   0.1  0.   0.   0.44 0.   0.95 0.   0.32 1.   0.62 0.36]
 [0.   0.   0.   0.   0.94 0.21 0.   0.   0.24 0.92 0.08 0.   0.8  0.66 0.   0.46 0.27 0.   0.   0.66 0.27 0.   0.   0.94 0.   0.91 0.   0.   0.   0.   0.24 0.25 0.   0.19 0.75 0.62 0.16 0.97 0.99 0.   0.76 0.55 0.99 0.71]
 [0.77 0.   0.18 0.08 0.24 0.39 0.   0.   0.8  0.32 0.7  0.19 0.   0.   0.39 0.   0.   0.95 0.38 0.71 0.7  0.   0.51 0.62 0.   0.   0.   0.   0.58 0.   0.29 0.   0.98 0.1  0.78 0.65 0.94 0.77 0.6  0.61 0.   0.   0.92 0.21]
 [0.   0.   0.63 0.24 0.   0.12 0.45 0.07 0.   0.48 0.   0.5  0.   0.3  0.   0.83 0.81 0.   0.9  0.   0.62 0.   0.57 0.46 0.24 0.   0.   0.58 0.   0.23 0.89 0.   0.27 0.8  0.   0.   0.   0.25 0.67 0.4  0.   0.12 0.29 0.95]
 [0.3  0.   0.41 0.27 0.   0.66 0.41 0.82 0.26 0.   0.   0.08 0.   0.   0.   0.   0.   0.07 0.41 0.09 0.   0.   0.97 0.08 0.28 0.   0.   0.   0.23 0.   0.   0.19 0.   0.   0.   0.22 0.   0.47 0.12 0.   0.7  0.45 0.99 0.  ]
 [0.17 0.9  0.   0.   0.14 0.   0.   0.   0.4  0.   0.44 0.   0.39 0.72 0.42 0.05 0.   0.63 0.19 0.   0.56 0.   0.   0.28 0.34 0.   0.24 0.29 0.89 0.   0.   0.   0.   0.26 0.02 0.   0.68 0.   0.48 0.   0.   0.2  0.4  0.37]
 [0.09 0.   0.64 0.29 0.   0.   0.   0.   0.8  0.   0.   0.   0.   0.82 0.64 0.   0.   1.   0.   0.92 0.89 0.26 0.   0.03 0.37 0.37 0.25 0.   0.   0.19 0.   0.   0.69 0.22 0.12 0.   0.27 0.   0.41 0.09 0.51 0.32 0.   0.24]
 [0.4  0.   0.   0.87 0.   0.9  0.01 0.19 0.72 0.01 0.21 0.   0.12 0.   0.01 0.32 0.61 0.62 0.   0.01 0.32 0.   0.11 0.21 0.38 0.   0.   0.98 0.27 0.   0.   0.69 0.   0.95 0.   0.59 0.51 0.   0.   0.71 0.   0.67 0.   0.59]
 [0.   0.   0.52 0.38 0.   0.22 0.16 0.   0.74 0.   0.   0.   0.79 0.26 0.61 0.6  0.   0.2  0.77 0.98 0.44 0.08 0.85 0.54 0.12 0.1  0.19 0.1  0.8  0.   0.26 0.22 0.95 0.   0.19 0.   0.07 0.68 0.16 0.23 0.   0.12 0.19 0.98]
 [0.69 0.28 0.64 0.02 0.59 0.   0.   0.   0.78 0.92 0.36 0.12 0.   0.52 0.7  0.52 0.   0.   0.05 0.61 0.   0.54 0.97 0.66 0.88 0.   0.75 0.78 0.   0.   0.02 0.12 0.   0.19 0.   0.77 0.   0.68 0.   0.63 0.2  0.8  0.   0.  ]
 [0.45 0.03 0.09 0.   0.22 0.11 0.88 0.   0.49 0.   0.88 0.98 0.45 0.01 0.   0.94 0.   0.6  0.   0.25 0.06 0.79 0.55 0.   0.   0.   0.62 0.65 0.   0.22 0.   0.   0.59 0.   0.77 0.   0.16 0.   0.   0.58 0.02 0.39 0.72 0.43]
 [0.74 0.53 0.   0.   0.73 0.11 0.   0.24 0.33 0.46 0.   0.46 0.15 0.09 0.   0.76 0.   0.   0.24 0.   0.   0.   0.   0.   0.   0.44 0.16 0.94 0.   0.   0.68 0.27 0.51 0.07 0.   0.16 0.   0.   0.   0.04 0.66 0.75 0.   0.  ]
 [0.   0.9  0.79 0.32 0.39 0.37 0.   0.   0.96 0.28 0.   0.   0.96 0.04 0.   0.   0.61 0.   0.   0.19 0.24 0.23 0.13 0.07 0.97 0.   0.97 0.77 0.25 0.47 0.   0.   0.   0.68 0.68 0.   0.   0.   0.   0.07 0.32 0.54 0.   0.64]
 [0.   0.62 0.17 0.42 0.   0.   0.54 0.62 0.   0.   0.   0.01 0.83 0.   0.   0.99 0.69 0.72 0.5  0.38 0.64 0.24 0.35 0.   0.   0.95 0.99 0.6  0.67 0.12 0.48 0.41 0.   0.16 0.   0.   0.   0.   0.   0.   0.   0.67 0.32 0.  ]
 [0.   0.56 0.57 0.31 0.08 0.33 0.   0.74 0.4  0.   0.   0.89 0.06 0.53 0.41 0.   0.19 0.11 0.75 0.14 0.   0.06 0.36 0.   0.26 0.   0.   0.61 0.4  0.   0.   0.09 0.71 0.23 0.63 0.58 0.04 0.07 0.   0.   0.81 0.65 0.09 0.  ]
 [0.   0.8  0.3  0.11 0.49 0.32 0.67 0.81 0.   0.   0.   0.53 0.   0.   0.   0.64 0.   0.48 0.   0.   0.   0.04 0.41 0.   0.   0.32 0.76 0.   0.   0.7  0.   0.51 0.   0.   0.2  0.02 0.66 0.32 0.   0.81 0.   0.72 0.07 0.  ]
 [0.21 0.   0.26 0.57 0.   0.96 0.98 0.   0.   0.   0.   0.28 0.   0.89 0.14 0.   0.   0.87 0.65 0.28 0.32 0.   0.9  0.39 0.84 1.   0.55 0.   0.12 0.45 0.2  0.32 0.67 0.12 0.8  0.39 0.75 0.54 0.67 0.65 0.72 0.   0.1  0.  ]
 [0.6  0.99 0.16 0.64 0.43 0.58 0.18 0.6  0.   0.56 0.72 0.   0.   0.   0.25 0.51 0.04 0.   0.44 0.   0.6  0.   0.   0.39 0.41 0.62 0.99 0.92 0.29 0.99 0.4  0.   0.   0.19 0.   0.72 0.   0.   0.32 0.09 0.07 0.1  0.   0.  ]
 [0.   0.17 0.   0.   0.86 0.6  0.21 0.   0.   0.   0.79 0.34 0.   0.82 0.73 0.04 0.   0.93 0.   0.04 0.   0.57 0.   0.34 0.   0.36 0.71 0.21 0.95 0.   0.37 0.24 0.59 0.98 0.   0.43 0.   0.64 0.   0.   0.   0.   0.   0.  ]];

H = 
[[0.   0.   0.   0.58 0.68 0.   0.   0.88 0.   0.   0.14 0.68 0.11]
 [0.   0.   0.38 0.   0.   0.98 0.35 0.19 0.   0.32 0.   0.   0.  ]
 [0.   0.38 0.   0.   0.97 0.   0.95 0.45 0.73 0.93 0.4  0.95 0.6 ]
 [0.58 0.   0.   0.   0.   0.   0.77 0.   0.78 0.65 0.87 0.9  0.  ]
 [0.68 0.   0.97 0.   0.   0.08 0.65 0.11 0.47 0.   0.34 0.96 0.06]
 [0.   0.98 0.   0.   0.08 0.   0.   0.   0.   0.   0.52 0.51 0.91]
 [0.   0.35 0.95 0.77 0.65 0.   0.   0.   0.   0.61 0.56 0.93 0.03]
 [0.88 0.19 0.45 0.   0.11 0.   0.   0.   0.02 0.18 0.   0.   0.  ]
 [0.   0.   0.73 0.78 0.47 0.   0.   0.02 0.   0.06 0.   0.   0.81]
 [0.   0.32 0.93 0.65 0.   0.   0.61 0.18 0.06 0.   0.52 0.57 0.  ]
 [0.14 0.   0.4  0.87 0.34 0.52 0.56 0.   0.   0.52 0.   0.77 0.25]
 [0.68 0.   0.95 0.9  0.96 0.51 0.93 0.   0.   0.57 0.77 0.   0.06]
 [0.11 0.   0.6  0.   0.06 0.91 0.03 0.   0.81 0.   0.25 0.06 0.  ]];
